<number of tasks>
20

<cycle time>
1000

<order strength>
0,5


<task times>
1 61
2 229
3 199
4 94
5 24
6 95
7 167
8 222
9 164
10 247
11 83
12 88
13 111
14 63
15 278
16 143
17 152
18 215
19 136
20 103

<precedence relations>
1,4
1,7
2,3
2,5
2,6
2,9
4,8
4,16
5,8
7,9
8,10
8,11
9,12
9,13
11,15
11,17
12,14
12,19
13,14
13,15
14,16
14,17
15,18
15,19
15,20

<end>
